148441
18,4,43,58,52,21,67,7,82,27,78,5,60,14,68,24,41,54,22,11,2,10,56,42,59,46,80,71,50,33,48,77,34,29,1,37,15,32,26,6,55,16,39,73,57,76,8,31,74,81,3,49,64,62,38,40,51,20,19,75,66,12,17,36,0,9,28,63,44,45,53,79,61,69,13,25,35,65,70,72,47,23,30